154130.66,56.59,70.18
169627.75,51.42,63.77
167948.09,51.94,64.41
191176.13,45.63,56.58
185479.0,47.03,58.32
166532.74,52.38,64.95
159636.22,54.64,67.76
163883.88,53.22,66.0
152396.53,57.24,70.98
171305.37,50.92,63.14
170264.8,51.23,63.53
181377.13,48.09,59.64
166412.27,52.42,65.0
160786.3,54.25,67.27
167724.89,52.01,64.49
186918.05,46.67,57.87
177236.42,49.21,61.03
176764.42,49.35,61.19
169443.36,51.48,63.84
168034.35,51.91,64.37
